\ LP format - for model browsing. Use MPS format to capture full model detail.
Minimize
  0 B24(0) + 0 B25(0) + 0 B31(0) + 0 B32(0) + 0 B34(0) + 0 B35(0) + 0 B36(0)
   + 0 B37(0) + 0 B38(0) + 0 B41(0) + 0 B42(0) + 0 B45(0) + 0 B49(0)
   + 0 B50(0) + 0 B55(0) + 0 B56(0) + 0 B58(0) + 0 B59(0) + 0 B60(0)
   + 0 B61(0) + 0 B62(0) + 0 B63(0) + 0 B65(0) + 0 B66(0) + 0 B69(0)
   + 0 B72(0) + 0 B73(0) + 0 B74(0) + 0 B76(0) + 0 B77(0) + 0 B78(0)
   + 0 B81(0) + 0 B84(0) + 0 B85(0) + 0 B86(0) + 0 B87(0) + 0 B88(0)
   + 0 B89(0) + 0 B92(0) + 0 B94(0) + 0 B95(0) + 0 B96(0) + 0 B97(0)
   + 0 B98(0) + 0 B99(0) + 0 B100(0) + 0 B101(0) + 0 B102(0) + 0 B104(0)
   + 0 B106(0) + 0 B107(0) + 0 B108(0) + 0 B109(0) + 0 B110(0) + 0 B111(0)
   + 0 B112(0) + 0 B113(0) + 0 B115(0) + 0 B120(0) + 0 B121(0) + 0 B122(0)
   + 0 B123(0) + 0 B124(0) + 0 B125(0) + 0 B126(0) + 0 B128(0) + 0 B129(0)
   + 0 B132(0) + 0 B133(0) + 0 B134(0) + 0 B135(0) + 0 B136(0) + 0 B137(0)
   + 0 B138(0) + 0 B139(0) + 0 B140(0) + 0 B141(0) + 0 B142(0) + 0 B143(0)
   + 0 B144(0) + 0 B145(0) + 0 B146(0) + 0 B147(0) + 0 B148(0) + 0 B149(0)
   + 0 B150(0) + 0 B151(0) + 0 B152(0) + 0 B153(0) + 0 B154(0) + 0 B156(0)
   + 0 B157(0) + 0 B158(0) + 0 B159(0) + 0 B160(0) + 0 B161(0) + 0 B162(0)
   + 0 B163(0) + 0 B164(0) + 0 B165(0) + 0 B167(0) + I192(1)
Subject To
 c0: B0(13) + B1(15) = 1
 c1: B2(10) + B3(16) = 1
 c2: B4(11) + B5(13) = 1
 c3: B6(19) + B7(13) = 1
 c4: B8(18) + B9(12) = 1
 c5: B10(9) + B11(11) = 1
 c6: B12(13) + B13(13) = 1
 c7: B14(12) + B15(18) = 1
 c8: B16(9) + B17(17) = 1
 c9: B18(11) + B19(13) = 1
 c10: B20(12) + B21(18) = 1
 c11: B22(12) + B23(18) = 1
 c12: - 1e+06 B0(13) + C168(16) <= 0
 c13: - 1e+06 B1(15) + C169(18) <= 0
 c14: - 1e+06 B2(10) + C170(10) <= 0
 c15: - 1e+06 B3(16) + C171(16) <= 0
 c16: - 1e+06 B4(11) + C172(12) <= 0
 c17: - 1e+06 B5(13) + C173(14) <= 0
 c18: - 1e+06 B6(19) + C174(22) <= 0
 c19: - 1e+06 B7(13) + C175(16) <= 0
 c20: - 1e+06 B8(18) + C176(18) <= 0
 c21: - 1e+06 B9(12) + C177(12) <= 0
 c22: - 1e+06 B10(9) + C178(10) <= 0
 c23: - 1e+06 B11(11) + C179(12) <= 0
 c24: - 1e+06 B12(13) + C180(16) <= 0
 c25: - 1e+06 B13(13) + C181(16) <= 0
 c26: - 1e+06 B14(12) + C182(12) <= 0
 c27: - 1e+06 B15(18) + C183(18) <= 0
 c28: - 1e+06 B16(9) + C184(10) <= 0
 c29: - 1e+06 B17(17) + C185(18) <= 0
 c30: - 1e+06 B18(11) + C186(14) <= 0
 c31: - 1e+06 B19(13) + C187(16) <= 0
 c32: - 1e+06 B20(12) + C188(12) <= 0
 c33: - 1e+06 B21(18) + C189(18) <= 0
 c34: - 1e+06 B22(12) + C190(12) <= 0
 c35: - 1e+06 B23(18) + C191(18) <= 0
 c36: - 1e+06 B0(13) - 1e+06 B4(11) - 1e+06 B26(4) + C168(16) - C172(12)
   >= -2.999977e+06
 c37: - 1e+06 B0(13) - 1e+06 B4(11) + 1e+06 B26(4) - C168(16) + C172(12)
   >= -1.999991e+06
 c38: - 1e+06 B1(15) - 1e+06 B5(13) - 1e+06 B26(4) + C169(18) - C173(14)
   >= -2.999976e+06
 c39: - 1e+06 B1(15) - 1e+06 B5(13) + 1e+06 B26(4) - C169(18) + C173(14)
   >= -1.999978e+06
 c40: - 1e+06 B0(13) - 1e+06 B7(13) - 1e+06 B27(2) + C168(16) - C175(16)
   >= -2.99998e+06
 c41: - 1e+06 B0(13) - 1e+06 B7(13) + 1e+06 B27(2) - C168(16) + C175(16)
   >= -1.999991e+06
 c42: - 1e+06 B0(13) - 1e+06 B9(12) - 1e+06 B28(2) + C168(16) - C177(12)
   >= -2.999992e+06
 c43: - 1e+06 B0(13) - 1e+06 B9(12) + 1e+06 B28(2) - C168(16) + C177(12)
   >= -1.99998e+06
 c44: - 1e+06 B1(15) - 1e+06 B11(11) - 1e+06 B29(2) + C169(18) - C179(12)
   >= -2.999986e+06
 c45: - 1e+06 B1(15) - 1e+06 B11(11) + 1e+06 B29(2) - C169(18) + C179(12)
   >= -1.999978e+06
 c46: - 1e+06 B1(15) - 1e+06 B13(13) - 1e+06 B30(2) + C169(18) - C181(16)
   >= -2.999986e+06
 c47: - 1e+06 B1(15) - 1e+06 B13(13) + 1e+06 B30(2) - C169(18) + C181(16)
   >= -1.99999e+06
 c48: - 1e+06 B1(15) - 1e+06 B19(13) - 1e+06 B33(2) + C169(18) - C187(16)
   >= -2.999994e+06
 c49: - 1e+06 B1(15) - 1e+06 B19(13) + 1e+06 B33(2) - C169(18) + C187(16)
   >= -1.999973e+06
 c50: - 1e+06 B3(16) - 1e+06 B6(19) - 1e+06 B39(2) + C171(16) - C174(22)
   >= -2.999993e+06
 c51: - 1e+06 B3(16) - 1e+06 B6(19) + 1e+06 B39(2) - C171(16) + C174(22)
   >= -1.999989e+06
 c52: - 1e+06 B3(16) - 1e+06 B8(18) - 1e+06 B40(2) + C171(16) - C176(18)
   >= -2.999993e+06
 c53: - 1e+06 B3(16) - 1e+06 B8(18) + 1e+06 B40(2) - C171(16) + C176(18)
   >= -1.999991e+06
 c54: - 1e+06 B3(16) - 1e+06 B15(18) - 1e+06 B43(2) + C171(16) - C183(18)
   >= -2.99998e+06
 c55: - 1e+06 B3(16) - 1e+06 B15(18) + 1e+06 B43(2) - C171(16) + C183(18)
   >= -1.999987e+06
 c56: - 1e+06 B2(10) - 1e+06 B16(9) - 1e+06 B44(4) + C170(10) - C184(10)
   >= -2.999988e+06
 c57: - 1e+06 B2(10) - 1e+06 B16(9) + 1e+06 B44(4) - C170(10) + C184(10)
   >= -1.999993e+06
 c58: - 1e+06 B3(16) - 1e+06 B17(17) - 1e+06 B44(4) + C171(16) - C185(18)
   >= -2.999976e+06
 c59: - 1e+06 B3(16) - 1e+06 B17(17) + 1e+06 B44(4) - C171(16) + C185(18)
   >= -1.999991e+06
 c60: - 1e+06 B2(10) - 1e+06 B20(12) - 1e+06 B46(4) + C170(10) - C188(12)
   >= -2.999993e+06
 c61: - 1e+06 B2(10) - 1e+06 B20(12) + 1e+06 B46(4) - C170(10) + C188(12)
   >= -1.999991e+06
 c62: - 1e+06 B3(16) - 1e+06 B21(18) - 1e+06 B46(4) + C171(16) - C189(18)
   >= -2.999989e+06
 c63: - 1e+06 B3(16) - 1e+06 B21(18) + 1e+06 B46(4) - C171(16) + C189(18)
   >= -1.999975e+06
 c64: - 1e+06 B2(10) - 1e+06 B22(12) - 1e+06 B47(4) + C170(10) - C190(12)
   >= -2.999987e+06
 c65: - 1e+06 B2(10) - 1e+06 B22(12) + 1e+06 B47(4) - C170(10) + C190(12)
   >= -1.999981e+06
 c66: - 1e+06 B3(16) - 1e+06 B23(18) - 1e+06 B47(4) + C171(16) - C191(18)
   >= -2.999975e+06
 c67: - 1e+06 B3(16) - 1e+06 B23(18) + 1e+06 B47(4) - C171(16) + C191(18)
   >= -1.999985e+06
 c68: - 1e+06 B0(13) - 1e+06 B4(11) - 1e+06 B48(4) - C168(16) + C172(12)
   >= -2.999991e+06
 c69: - 1e+06 B0(13) - 1e+06 B4(11) + 1e+06 B48(4) + C168(16) - C172(12)
   >= -1.999977e+06
 c70: - 1e+06 B1(15) - 1e+06 B5(13) - 1e+06 B48(4) - C169(18) + C173(14)
   >= -2.999978e+06
 c71: - 1e+06 B1(15) - 1e+06 B5(13) + 1e+06 B48(4) + C169(18) - C173(14)
   >= -1.999976e+06
 c72: - 1e+06 B4(11) - 1e+06 B7(13) - 1e+06 B51(2) + C172(12) - C175(16)
   >= -2.999989e+06
 c73: - 1e+06 B4(11) - 1e+06 B7(13) + 1e+06 B51(2) - C172(12) + C175(16)
   >= -1.999981e+06
 c74: - 1e+06 B4(11) - 1e+06 B9(12) - 1e+06 B52(2) + C172(12) - C177(12)
   >= -2.999986e+06
 c75: - 1e+06 B4(11) - 1e+06 B9(12) + 1e+06 B52(2) - C172(12) + C177(12)
   >= -1.999991e+06
 c76: - 1e+06 B5(13) - 1e+06 B11(11) - 1e+06 B53(2) + C173(14) - C179(12)
   >= -2.999994e+06
 c77: - 1e+06 B5(13) - 1e+06 B11(11) + 1e+06 B53(2) - C173(14) + C179(12)
   >= -1.999992e+06
 c78: - 1e+06 B5(13) - 1e+06 B13(13) - 1e+06 B54(2) + C173(14) - C181(16)
   >= -2.999985e+06
 c79: - 1e+06 B5(13) - 1e+06 B13(13) + 1e+06 B54(2) - C173(14) + C181(16)
   >= -1.999993e+06
 c80: - 1e+06 B5(13) - 1e+06 B19(13) - 1e+06 B57(2) + C173(14) - C187(16)
   >= -2.999996e+06
 c81: - 1e+06 B5(13) - 1e+06 B19(13) + 1e+06 B57(2) - C173(14) + C187(16)
   >= -1.999987e+06
 c82: - 1e+06 B6(19) - 1e+06 B8(18) - 1e+06 B64(4) + C174(22) - C176(18)
   >= -2.999992e+06
 c83: - 1e+06 B6(19) - 1e+06 B8(18) + 1e+06 B64(4) - C174(22) + C176(18)
   >= -1.999991e+06
 c84: - 1e+06 B7(13) - 1e+06 B9(12) - 1e+06 B64(4) + C175(16) - C177(12)
   >= -2.999992e+06
 c85: - 1e+06 B7(13) - 1e+06 B9(12) + 1e+06 B64(4) - C175(16) + C177(12)
   >= -1.999987e+06
 c86: - 1e+06 B6(19) - 1e+06 B15(18) - 1e+06 B67(2) + C174(22) - C183(18)
   >= -2.999987e+06
 c87: - 1e+06 B6(19) - 1e+06 B15(18) + 1e+06 B67(2) - C174(22) + C183(18)
   >= -1.999989e+06
 c88: - 1e+06 B6(19) - 1e+06 B17(17) - 1e+06 B68(2) + C174(22) - C185(18)
   >= -2.999986e+06
 c89: - 1e+06 B6(19) - 1e+06 B17(17) + 1e+06 B68(2) - C174(22) + C185(18)
   >= -1.999993e+06
 c90: - 1e+06 B6(19) - 1e+06 B21(18) - 1e+06 B70(2) + C174(22) - C189(18)
   >= -2.999994e+06
 c91: - 1e+06 B6(19) - 1e+06 B21(18) + 1e+06 B70(2) - C174(22) + C189(18)
   >= -1.999989e+06
 c92: - 1e+06 B6(19) - 1e+06 B23(18) - 1e+06 B71(2) + C174(22) - C191(18)
   >= -2.999992e+06
 c93: - 1e+06 B6(19) - 1e+06 B23(18) + 1e+06 B71(2) - C174(22) + C191(18)
   >= -1.99999e+06
 c94: - 1e+06 B6(19) - 1e+06 B8(18) - 1e+06 B75(4) - C174(22) + C176(18)
   >= -2.999991e+06
 c95: - 1e+06 B6(19) - 1e+06 B8(18) + 1e+06 B75(4) + C174(22) - C176(18)
   >= -1.999992e+06
 c96: - 1e+06 B7(13) - 1e+06 B9(12) - 1e+06 B75(4) - C175(16) + C177(12)
   >= -2.999987e+06
 c97: - 1e+06 B7(13) - 1e+06 B9(12) + 1e+06 B75(4) + C175(16) - C177(12)
   >= -1.999992e+06
 c98: - 1e+06 B8(18) - 1e+06 B15(18) - 1e+06 B79(2) + C176(18) - C183(18)
   >= -2.999992e+06
 c99: - 1e+06 B8(18) - 1e+06 B15(18) + 1e+06 B79(2) - C176(18) + C183(18)
   >= -1.999993e+06
 c100: - 1e+06 B8(18) - 1e+06 B17(17) - 1e+06 B80(2) + C176(18) - C185(18)
   >= -2.999991e+06
 c101: - 1e+06 B8(18) - 1e+06 B17(17) + 1e+06 B80(2) - C176(18) + C185(18)
   >= -1.999996e+06
 c102: - 1e+06 B8(18) - 1e+06 B21(18) - 1e+06 B82(2) + C176(18) - C189(18)
   >= -2.999991e+06
 c103: - 1e+06 B8(18) - 1e+06 B21(18) + 1e+06 B82(2) - C176(18) + C189(18)
   >= -1.999986e+06
 c104: - 1e+06 B8(18) - 1e+06 B23(18) - 1e+06 B83(2) + C176(18) - C191(18)
   >= -2.999987e+06
 c105: - 1e+06 B8(18) - 1e+06 B23(18) + 1e+06 B83(2) - C176(18) + C191(18)
   >= -1.999986e+06
 c106: - 1e+06 B10(9) - 1e+06 B12(13) - 1e+06 B90(4) + C178(10) - C180(16)
   >= -2.99999e+06
 c107: - 1e+06 B10(9) - 1e+06 B12(13) + 1e+06 B90(4) - C178(10) + C180(16)
   >= -1.999993e+06
 c108: - 1e+06 B11(11) - 1e+06 B13(13) - 1e+06 B90(4) + C179(12) - C181(16)
   >= -2.999989e+06
 c109: - 1e+06 B11(11) - 1e+06 B13(13) + 1e+06 B90(4) - C179(12) + C181(16)
   >= -1.999994e+06
 c110: - 1e+06 B10(9) - 1e+06 B14(12) - 1e+06 B91(2) + C178(10) - C182(12)
   >= -2.999987e+06
 c111: - 1e+06 B10(9) - 1e+06 B14(12) + 1e+06 B91(2) - C178(10) + C182(12)
   >= -1.999978e+06
 c112: - 1e+06 B10(9) - 1e+06 B18(11) - 1e+06 B93(4) + C178(10) - C186(14)
   >= -2.999993e+06
 c113: - 1e+06 B10(9) - 1e+06 B18(11) + 1e+06 B93(4) - C178(10) + C186(14)
   >= -1.999978e+06
 c114: - 1e+06 B11(11) - 1e+06 B19(13) - 1e+06 B93(4) + C179(12) - C187(16)
   >= -2.999983e+06
 c115: - 1e+06 B11(11) - 1e+06 B19(13) + 1e+06 B93(4) - C179(12) + C187(16)
   >= -1.999983e+06
 c116: - 1e+06 B12(13) - 1e+06 B14(12) - 1e+06 B103(2) + C180(16)
   - C182(12) >= -2.99999e+06
 c117: - 1e+06 B12(13) - 1e+06 B14(12) + 1e+06 B103(2) - C180(16)
   + C182(12) >= -1.999982e+06
 c118: - 1e+06 B12(13) - 1e+06 B18(11) - 1e+06 B105(4) + C180(16)
   - C186(14) >= -2.999985e+06
 c119: - 1e+06 B12(13) - 1e+06 B18(11) + 1e+06 B105(4) - C180(16)
   + C186(14) >= -1.999978e+06
 c120: - 1e+06 B13(13) - 1e+06 B19(13) - 1e+06 B105(4) + C181(16)
   - C187(16) >= -2.999994e+06
 c121: - 1e+06 B13(13) - 1e+06 B19(13) + 1e+06 B105(4) - C181(16)
   + C187(16) >= -1.999986e+06
 c122: - 1e+06 B12(13) - 1e+06 B14(12) - 1e+06 B114(2) - C180(16)
   + C182(12) >= -2.999982e+06
 c123: - 1e+06 B12(13) - 1e+06 B14(12) + 1e+06 B114(2) + C180(16)
   - C182(12) >= -1.99999e+06
 c124: - 1e+06 B15(18) - 1e+06 B17(17) - 1e+06 B116(2) + C183(18)
   - C185(18) >= -2.999984e+06
 c125: - 1e+06 B15(18) - 1e+06 B17(17) + 1e+06 B116(2) - C183(18)
   + C185(18) >= -1.99999e+06
 c126: - 1e+06 B14(12) - 1e+06 B18(11) - 1e+06 B117(2) + C182(12)
   - C186(14) >= -2.999977e+06
 c127: - 1e+06 B14(12) - 1e+06 B18(11) + 1e+06 B117(2) - C182(12)
   + C186(14) >= -1.999971e+06
 c128: - 1e+06 B15(18) - 1e+06 B21(18) - 1e+06 B118(2) + C183(18)
   - C189(18) >= -2.999995e+06
 c129: - 1e+06 B15(18) - 1e+06 B21(18) + 1e+06 B118(2) - C183(18)
   + C189(18) >= -1.999992e+06
 c130: - 1e+06 B15(18) - 1e+06 B23(18) - 1e+06 B119(2) + C183(18)
   - C191(18) >= -2.999983e+06
 c131: - 1e+06 B15(18) - 1e+06 B23(18) + 1e+06 B119(2) - C183(18)
   + C191(18) >= -1.999987e+06
 c132: - 1e+06 B15(18) - 1e+06 B17(17) - 1e+06 B127(2) - C183(18)
   + C185(18) >= -2.99999e+06
 c133: - 1e+06 B15(18) - 1e+06 B17(17) + 1e+06 B127(2) + C183(18)
   - C185(18) >= -1.999984e+06
 c134: - 1e+06 B16(9) - 1e+06 B20(12) - 1e+06 B130(4) + C184(10) - C188(12)
   >= -2.999989e+06
 c135: - 1e+06 B16(9) - 1e+06 B20(12) + 1e+06 B130(4) - C184(10) + C188(12)
   >= -1.999987e+06
 c136: - 1e+06 B17(17) - 1e+06 B21(18) - 1e+06 B130(4) + C185(18)
   - C189(18) >= -2.999977e+06
 c137: - 1e+06 B17(17) - 1e+06 B21(18) + 1e+06 B130(4) - C185(18)
   + C189(18) >= -1.999992e+06
 c138: - 1e+06 B16(9) - 1e+06 B22(12) - 1e+06 B131(4) + C184(10) - C190(12)
   >= -2.999991e+06
 c139: - 1e+06 B16(9) - 1e+06 B22(12) + 1e+06 B131(4) - C184(10) + C190(12)
   >= -1.999977e+06
 c140: - 1e+06 B17(17) - 1e+06 B23(18) - 1e+06 B131(4) + C185(18)
   - C191(18) >= -2.999989e+06
 c141: - 1e+06 B17(17) - 1e+06 B23(18) + 1e+06 B131(4) - C185(18)
   + C191(18) >= -1.99999e+06
 c142: - 1e+06 B20(12) - 1e+06 B22(12) - 1e+06 B155(4) + C188(12)
   - C190(12) >= -2.999993e+06
 c143: - 1e+06 B20(12) - 1e+06 B22(12) + 1e+06 B155(4) - C188(12)
   + C190(12) >= -1.999977e+06
 c144: - 1e+06 B21(18) - 1e+06 B23(18) - 1e+06 B155(4) + C189(18)
   - C191(18) >= -2.999989e+06
 c145: - 1e+06 B21(18) - 1e+06 B23(18) + 1e+06 B155(4) - C189(18)
   + C191(18) >= -1.999988e+06
 c146: - 1e+06 B20(12) - 1e+06 B22(12) - 1e+06 B166(4) - C188(12)
   + C190(12) >= -2.999977e+06
 c147: - 1e+06 B20(12) - 1e+06 B22(12) + 1e+06 B166(4) + C188(12)
   - C190(12) >= -1.999993e+06
 c148: - 1e+06 B21(18) - 1e+06 B23(18) - 1e+06 B166(4) - C189(18)
   + C191(18) >= -2.999988e+06
 c149: - 1e+06 B21(18) - 1e+06 B23(18) + 1e+06 B166(4) + C189(18)
   - C191(18) >= -1.999989e+06
 c150: C168(16) >= 0
 c151: - B0(13) + C168(16) >= 0
 c152: C169(18) >= 0
 c153: - B1(15) + C169(18) >= 0
 c154: C170(10) >= 0
 c155: - 2 B2(10) + C170(10) >= 0
 c156: C171(16) >= 0
 c157: - 2 B3(16) + C171(16) >= 0
 c158: C172(12) >= 0
 c159: C172(12) >= 0
 c160: C173(14) >= 0
 c161: C173(14) >= 0
 c162: C174(22) >= 0
 c163: - 3 B6(19) + C174(22) >= 0
 c164: C175(16) >= 0
 c165: - 3 B7(13) + C175(16) >= 0
 c166: C176(18) >= 0
 c167: - B8(18) + C176(18) >= 0
 c168: C177(12) >= 0
 c169: - B9(12) + C177(12) >= 0
 c170: C178(10) >= 0
 c171: C178(10) >= 0
 c172: C179(12) >= 0
 c173: C179(12) >= 0
 c174: C180(16) >= 0
 c175: - 2 B12(13) + C180(16) >= 0
 c176: C181(16) >= 0
 c177: - 2 B13(13) + C181(16) >= 0
 c178: C182(12) >= 0
 c179: - B14(12) + C182(12) >= 0
 c180: C183(18) >= 0
 c181: - B15(18) + C183(18) >= 0
 c182: C184(10) >= 0
 c183: C184(10) >= 0
 c184: C185(18) >= 0
 c185: C185(18) >= 0
 c186: C186(14) >= 0
 c187: - 2 B18(11) + C186(14) >= 0
 c188: C187(16) >= 0
 c189: - 2 B19(13) + C187(16) >= 0
 c190: C188(12) >= 0
 c191: - 3 B20(12) + C188(12) >= 0
 c192: C189(18) >= 0
 c193: - 3 B21(18) + C189(18) >= 0
 c194: C190(12) >= 0
 c195: - 2 B22(12) + C190(12) >= 0
 c196: C191(18) >= 0
 c197: - 2 B23(18) + C191(18) >= 0
 c198: - 4 B2(10) - 5 B3(16) + C168(16) + C169(18) - C170(10) - C171(16)
   >= 0
 c199: - 3 B4(11) - 4 B5(13) + C168(16) + C169(18) - C172(12) - C173(14)
   >= 0
 c200: - 2 B8(18) - 4 B9(12) + C174(22) + C175(16) - C176(18) - C177(12)
   >= 0
 c201: - 2 B10(9) - 2 B11(11) + C174(22) + C175(16) - C178(10) - C179(12)
   >= 0
 c202: - 4 B14(12) - 5 B15(18) + C180(16) + C181(16) - C182(12) - C183(18)
   >= 0
 c203: - 3 B16(9) - 4 B17(17) + C180(16) + C181(16) - C184(10) - C185(18)
   >= 0
 c204: - 3 B20(12) - 3 B21(18) + C186(14) + C187(16) - C188(12) - C189(18)
   >= 0
 c205: - 3 B22(12) - 5 B23(18) + C186(14) + C187(16) - C190(12) - C191(18)
   >= 0
 c206: 5 B0(13) + C168(16) - 1e+06 B193(4) >= -999988
 c207: 5 B0(13) + C168(16) - 1e+06 B193(4) <= 12
 c208: 2 B1(15) + C169(18) - 1e+06 B194(4) >= -999988
 c209: 2 B1(15) + C169(18) - 1e+06 B194(4) <= 12
 c210: 5 B6(19) + C174(22) - 1e+06 B195(4) >= -999985
 c211: 5 B6(19) + C174(22) - 1e+06 B195(4) <= 15
 c212: 5 B7(13) + C175(16) - 1e+06 B196(4) >= -999985
 c213: 5 B7(13) + C175(16) - 1e+06 B196(4) <= 15
 c214: 2 B12(13) + C180(16) - 1e+06 B197(4) >= -999994
 c215: 2 B12(13) + C180(16) - 1e+06 B197(4) <= 6
 c216: 5 B13(13) + C181(16) - 1e+06 B198(4) >= -999994
 c217: 5 B13(13) + C181(16) - 1e+06 B198(4) <= 6
 c218: 3 B18(11) + C186(14) - 1e+06 B199(4) >= -999994
 c219: 3 B18(11) + C186(14) - 1e+06 B199(4) <= 6
 c220: 2 B19(13) + C187(16) - 1e+06 B200(4) >= -999994
 c221: 2 B19(13) + C187(16) - 1e+06 B200(4) <= 6
 qc0: I192(1) + 7 B193(4) + 10 B194(4) + 10 B195(4) + 10 B196(4)
   + 4 B197(4) + B198(4) + 3 B199(4) + 4 B200(4) + [ - C168(16) * B193(4)
   - C169(18) * B194(4) - C174(22) * B195(4) - C175(16) * B196(4)
   - C180(16) * B197(4) - C181(16) * B198(4) - C186(14) * B199(4)
   - C187(16) * B200(4) ] >= 0
Bounds
Binaries
 B0(13) B1(15) B2(10) B3(16) B4(11) B5(13) B6(19) B7(13) B8(18) B9(12)
 B10(9) B11(11) B12(13) B13(13) B14(12) B15(18) B16(9) B17(17) B18(11)
 B19(13) B20(12) B21(18) B22(12) B23(18) B24(0) B25(0) B26(4) B27(2) B28(2)
 B29(2) B30(2) B31(0) B32(0) B33(2) B34(0) B35(0) B36(0) B37(0) B38(0)
 B39(2) B40(2) B41(0) B42(0) B43(2) B44(4) B45(0) B46(4) B47(4) B48(4)
 B49(0) B50(0) B51(2) B52(2) B53(2) B54(2) B55(0) B56(0) B57(2) B58(0)
 B59(0) B60(0) B61(0) B62(0) B63(0) B64(4) B65(0) B66(0) B67(2) B68(2)
 B69(0) B70(2) B71(2) B72(0) B73(0) B74(0) B75(4) B76(0) B77(0) B78(0)
 B79(2) B80(2) B81(0) B82(2) B83(2) B84(0) B85(0) B86(0) B87(0) B88(0)
 B89(0) B90(4) B91(2) B92(0) B93(4) B94(0) B95(0) B96(0) B97(0) B98(0)
 B99(0) B100(0) B101(0) B102(0) B103(2) B104(0) B105(4) B106(0) B107(0)
 B108(0) B109(0) B110(0) B111(0) B112(0) B113(0) B114(2) B115(0) B116(2)
 B117(2) B118(2) B119(2) B120(0) B121(0) B122(0) B123(0) B124(0) B125(0)
 B126(0) B127(2) B128(0) B129(0) B130(4) B131(4) B132(0) B133(0) B134(0)
 B135(0) B136(0) B137(0) B138(0) B139(0) B140(0) B141(0) B142(0) B143(0)
 B144(0) B145(0) B146(0) B147(0) B148(0) B149(0) B150(0) B151(0) B152(0)
 B153(0) B154(0) B155(4) B156(0) B157(0) B158(0) B159(0) B160(0) B161(0)
 B162(0) B163(0) B164(0) B165(0) B166(4) B167(0) B193(4) B194(4) B195(4)
 B196(4) B197(4) B198(4) B199(4) B200(4)
Generals
 I192(1)
End
